<number of tasks>
30

<cycle time>
41

<task times>
1 8
2 7
3 19
4 10
5 2
6 6
7 14
8 10
9 1
10 4
11 14
12 15
13 5
14 12
15 9
16 10
17 2
18 10
19 18
20 16
21 21
22 14
23 16
24 7
25 17
26 9
27 25
28 7
29 14
30 2

<precedence relations>
1,4
1,5
2,11
2,12
3,16
3,17
4,7
5,6
6,7
7,8
8,9
9,26
10,24
12,13
13,14
14,15
14,20
15,22
16,20
17,18
18,19
20,21
20,24
21,22
22,23
23,27
24,25
25,26
26,27
27,28
27,29
29,30

<setup times forward>
1,5:1
1,10:1
1,15:1
1,16:1
1,18:1
1,19:1
1,22:1
1,25:1
2,5:1
2,6:1
2,9:1
2,10:1
2,16:1
2,18:1
2,19:1
3,5:1
3,6:1
3,9:1
3,10:1
3,15:1
3,16:1
4,5:1
4,6:1
4,10:1
4,15:1
4,16:1
4,18:1
4,19:1
4,22:1
4,25:1
5,2:1
5,3:1
5,4:1
5,11:1
5,12:1
5,13:1
5,14:1
5,17:1
5,20:1
5,21:1
5,23:1
5,24:1
6,2:1
6,3:1
6,4:1
6,7:1
6,11:1
6,12:1
6,13:1
6,14:1
6,17:1
6,20:1
6,21:1
6,23:1
6,24:1
7,10:1
7,15:1
7,16:1
7,18:1
7,19:1
7,22:1
7,25:1
8,9:1
8,10:1
8,15:1
8,16:1
8,18:1
8,19:1
8,22:1
8,25:1
9,2:1
9,3:1
9,11:1
9,12:1
9,13:1
9,14:1
9,17:1
9,20:1
9,21:1
9,23:1
9,24:1
10,1:1
10,2:1
10,3:1
10,4:1
10,7:1
10,8:1
10,11:1
10,12:1
10,13:1
10,14:1
10,17:1
10,20:1
10,21:1
10,23:1
10,24:1
11,5:1
11,6:1
11,9:1
11,10:1
11,15:1
11,16:1
11,18:1
11,19:1
11,22:1
11,25:1
11,26:1
11,28:1
11,29:1
11,30:1
12,5:1
12,6:1
12,9:1
12,10:1
12,16:1
12,18:1
12,19:1
13,5:1
13,6:1
13,9:1
13,10:1
13,16:1
13,18:1
13,19:1
14,5:1
14,6:1
14,9:1
14,10:1
14,15:1
14,16:1
14,18:1
14,19:1
15,1:1
15,3:1
15,4:1
15,7:1
15,8:1
15,11:1
15,17:1
15,20:1
15,21:1
15,24:1
16,1:1
16,2:1
16,4:1
16,7:1
16,8:1
16,11:1
16,12:1
16,13:1
16,14:1
16,17:1
16,20:1
17,5:1
17,6:1
17,9:1
17,10:1
17,15:1
17,16:1
17,18:1
17,22:1
17,25:1
17,26:1
17,28:1
17,29:1
17,30:1
18,1:1
18,2:1
18,4:1
18,7:1
18,8:1
18,11:1
18,12:1
18,13:1
18,14:1
18,20:1
18,21:1
18,23:1
18,24:1
18,27:1
19,1:1
19,2:1
19,4:1
19,7:1
19,8:1
19,11:1
19,12:1
19,13:1
19,14:1
19,20:1
19,21:1
19,23:1
19,24:1
19,27:1
20,5:1
20,6:1
20,9:1
20,10:1
20,15:1
20,18:1
20,19:1
21,5:1
21,6:1
21,9:1
21,10:1
21,15:1
21,18:1
21,19:1
21,22:1
21,25:1
21,26:1
22,1:1
22,4:1
22,7:1
22,8:1
22,11:1
22,17:1
22,23:1
22,24:1
23,5:1
23,6:1
23,9:1
23,10:1
23,18:1
23,19:1
23,25:1
23,26:1
24,5:1
24,6:1
24,9:1
24,15:1
24,18:1
24,19:1
24,22:1
24,25:1
25,1:1
25,4:1
25,7:1
25,8:1
25,11:1
25,17:1
25,21:1
25,23:1
26,11:1
26,17:1
26,21:1
26,23:1
26,27:1
27,18:1
27,19:1
27,28:1
27,29:1
28,11:1
28,17:1
29,11:1
29,17:1
30,11:1
30,17:1

<setup times backward>
1,10:1
1,15:1
1,16:1
1,18:1
1,19:1
1,22:1
1,25:1
2,5:1
2,6:1
2,9:1
2,10:1
2,16:1
2,18:1
2,19:1
3,5:1
3,6:1
3,9:1
3,10:1
3,15:1
4,5:1
4,6:1
4,10:1
4,15:1
4,16:1
4,18:1
4,19:1
4,22:1
4,25:1
7,5:1
7,6:1
7,10:1
7,15:1
7,16:1
7,18:1
7,19:1
7,22:1
7,25:1
8,5:1
8,6:1
8,10:1
8,15:1
8,16:1
8,18:1
8,19:1
8,22:1
8,25:1
11,5:1
11,6:1
11,9:1
11,10:1
11,15:1
11,16:1
11,18:1
11,19:1
11,22:1
11,25:1
11,26:1
11,28:1
11,29:1
11,30:1
12,5:1
12,6:1
12,9:1
12,10:1
12,16:1
12,18:1
12,19:1
13,5:1
13,6:1
13,9:1
13,10:1
13,16:1
13,18:1
13,19:1
14,5:1
14,6:1
14,9:1
14,10:1
14,16:1
14,18:1
14,19:1
17,5:1
17,6:1
17,9:1
17,10:1
17,15:1
17,16:1
17,22:1
17,25:1
17,26:1
17,28:1
17,29:1
17,30:1
20,5:1
20,6:1
20,9:1
20,10:1
20,15:1
20,16:1
20,18:1
20,19:1
21,5:1
21,6:1
21,9:1
21,10:1
21,15:1
21,16:1
21,18:1
21,19:1
21,25:1
21,26:1
23,5:1
23,6:1
23,9:1
23,10:1
23,15:1
23,16:1
23,18:1
23,19:1
23,22:1
23,25:1
23,26:1
24,5:1
24,6:1
24,9:1
24,10:1
24,15:1
24,16:1
24,18:1
24,19:1
24,22:1
27,5:1
27,6:1
27,9:1
27,10:1
27,15:1
27,16:1
27,18:1
27,19:1
27,22:1
27,25:1
27,26:1

<end>

<optimal SALBP-1 value>
8


<rand seed>
467321153

<Lower Bounds>
Lm1=8
Lms1=8
Lm2=2
Lm3=6
Lm4=8
Best=8

<Optimal Stations (Iterations: 10)>
10
